Set parameter Username
Academic license - for non-commercial use only - expires 2024-10-29
Set parameter LazyConstraints to value 1
Set parameter TimeLimit to value 600
Gurobi Optimizer version 10.0.0 build v10.0.0rc2 (linux64)

CPU model: AMD FX(tm)-4300 Quad-Core Processor, instruction set [SSE2|AVX]
Thread count: 2 physical cores, 4 logical processors, using up to 4 threads

Optimize a model with 50250 rows, 12500 columns and 62510 nonzeros
Model fingerprint: 0xc604a50f
Variable types: 0 continuous, 12500 integer (12500 binary)
Coefficient statistics:
  Matrix range     [1e+00, 1e+00]
  Objective range  [1e+00, 1e+01]
  Bounds range     [1e+00, 1e+00]
  RHS range        [1e+00, 1e+00]
Presolve removed 50000 rows and 0 columns
Presolve time: 0.03s
Presolved: 250 rows, 12500 columns, 12510 nonzeros
Variable types: 0 continuous, 12500 integer (12500 binary)

Root simplex log...

Iteration    Objective       Primal Inf.    Dual Inf.      Time
       0    0.0000000e+00   2.524093e+02   0.000000e+00      6s
     361    1.4250000e+02   0.000000e+00   0.000000e+00      6s

Root relaxation: objective 1.425000e+02, 361 iterations, 0.01 seconds (0.00 work units)

    Nodes    |    Current Node    |     Objective Bounds      |     Work
 Expl Unexpl |  Obj  Depth IntInf | Incumbent    BestBd   Gap | It/Node Time

     0     0  142.50000    0    3          -  142.50000      -     -    5s
     0     0  142.50000    0    3          -  142.50000      -     -   11s
     0     0  259.00000    0    -          -  259.00000      -     -   13s
     0     0  259.00000    0    -          -  259.00000      -     -   14s
     0     0  259.00000    0    -          -  259.00000      -     -   15s
     0     0  259.00000    0    -          -  259.00000      -     -   16s
     0     0  259.00000    0    -          -  259.00000      -     -   17s
H    0     0                     926.0000000  259.00000  72.0%     -   18s
     0     0  259.00000    0    5  926.00000  259.00000  72.0%     -   18s
     0     0  259.00000    0    5  926.00000  259.00000  72.0%     -   21s
     0     0  259.00000    0    -  926.00000  259.00000  72.0%     -   26s
     0     0  259.00000    0    -  926.00000  259.00000  72.0%     -   27s
     0     0  259.00000    0    -  926.00000  259.00000  72.0%     -   28s
H    0     0                     732.0000000  259.00000  64.6%     -   29s
     0     0  259.00000    0    7  732.00000  259.00000  64.6%     -   29s
     0     0  259.00000    0    7  732.00000  259.00000  64.6%     -   30s
     0     0  259.00000    0    7  732.00000  259.00000  64.6%     -   35s
     0     0  259.00000    0    7  732.00000  259.00000  64.6%     -   40s
H    0     2                     726.0000000  259.00000  64.3%     -   49s
     0     2  259.00000    0    8  726.00000  259.00000  64.3%     -   49s
     2     4  259.00000    1    4  726.00000  259.00000  64.3%   5.0   53s
H    5     4                     722.0000000  259.00000  64.1%   3.4   60s
     9     3  259.00000    3    -  722.00000  259.00000  64.1%   4.3   68s
H   11     5                     716.0000000  259.00000  63.8%   3.8   71s
    15     1  259.00000    4    -  716.00000  259.00000  63.8%   3.3   80s
    25     7  259.00000    4    -  716.00000  259.00000  63.8%   3.5   98s
    35     1  259.00000    4    -  716.00000  259.00000  63.8%   3.9  109s
H   38     4                     714.0000000  259.00000  63.7%   3.8  114s
    53     0  259.00000    4    -  714.00000  259.00000  63.7%   4.3  128s
    69     0  259.00000    4    -  714.00000  259.00000  63.7%   3.7  145s
    85     6  259.00000    4    -  714.00000  259.00000  63.7%   3.7  162s
   101    11  259.00000    5    -  714.00000  259.00000  63.7%   3.7  184s
H  102    12                     713.0000000  259.00000  63.7%   3.7  187s
H  118    23                     708.0000000  259.00000  63.4%   3.6  200s
H  124     2                     707.0000000  259.00000  63.4%   3.5  206s
H  127     4                     699.0000000  259.00000  62.9%   3.6  211s
   164     0  259.00000    6    -  699.00000  259.00000  62.9%   3.2  255s
H  176    10                     698.0000000  259.00000  62.9%   3.1  271s
   216    22  259.00000    6    -  698.00000  259.00000  62.9%   2.8  306s
H  217    23                     693.0000000  259.00000  62.6%   2.8  309s
H  222    28                     690.0000000  259.00000  62.5%   2.8  317s
   243    39  259.00000    8    5  690.00000  259.00000  62.5%   2.8  331s
   264    52  259.00000    7    -  690.00000  259.00000  62.5%   2.7  343s
   315    71  259.00000   10    -  690.00000  259.00000  62.5%   2.6  379s
   333    81  259.00000    7    4  690.00000  259.00000  62.5%   2.6  393s
   383   111  259.00000    7    4  690.00000  259.00000  62.5%   2.8  420s
   405   124  259.00000   16    4  690.00000  259.00000  62.5%   2.8  431s
   422   132  259.00000   21    -  690.00000  259.00000  62.5%   2.8  438s
   439   141  259.00000   25    -  690.00000  259.00000  62.5%   2.8  445s
   456   150  259.00000   28    4  690.00000  259.00000  62.5%   2.8  452s
   531   174  259.00000   30    -  690.00000  259.00000  62.5%   2.8  484s
   548   182  259.00000   35    -  690.00000  259.00000  62.5%   2.8  491s
   565   191  259.00000   39    -  690.00000  259.00000  62.5%   2.8  498s
   582   200  259.00000   42    4  690.00000  259.00000  62.5%   2.8  506s
   653   239  259.00000    7    -  690.00000  259.00000  62.5%   2.9  538s
   657   214  259.00000   45    -  690.00000  259.00000  62.5%   2.9  541s
   674   230  259.00000    7    4  690.00000  259.00000  62.5%   3.0  563s
   691   238  259.00000   12    -  690.00000  259.00000  62.5%   3.1  571s
   708   247  259.00000   16    -  690.00000  259.00000  62.5%   3.2  578s
   725   256  259.00000   19    4  690.00000  259.00000  62.5%   3.2  585s

Cutting planes:
  User: 1
  MIR: 1
  Lazy constraints: 159

Explored 820 nodes (3510 simplex iterations) in 633.36 seconds (2.26 work units)
Thread count was 4 (of 4 available processors)

Solution count 10: 690 693 698 ... 722

Time limit reached
Best objective 6.900000000000e+02, best bound 2.590000000000e+02, gap 62.4638%

User-callback calls 2474, time in user-callback 628.78 sec
